NAME: rd100
DIMENSION: 16
EDGE_WEIGHT_TYPE: EUC_2D
NODE_COORD_SECTION
1 144 863
2 882 1
3 545 735
4 503 876
5 205 345
6 702 577
7 147 164
8 135 808
9 629 977
10 675 731
11 314 299
12 446 982
13 355 765
14 398 976
15 273 854
16 666 312
ACCEPTED_PROBABILITIES
0.0
0.7
0.33
0.5
0.85
0.86
0.8
0.13
0.88
0.4
0.42
0.88
0.99
0.48
0.83
0.8
OUTSOURCING_COSTS
0.0
13.83
57.4
14.41
56.14
50.01
10.68
50.28
21.78
70.65
36.3
58.83
23.08
1.73
48.94
44.14
